pymatgen v2019.10.16 with grid density = 776 / atom
0
GAMMA
7 7 7
