%BLOCK LATTICE_ABC
ang
3.1925 3.1925 5.1795
90.0 90.0 120.0
%ENDBLOCK LATTICE_ABC

%BLOCK POSITIONS_FRAC
Mg 1/3 2/3 1/4
Mg 2/3 1/3 3/4
%ENDBLOCK POSITIONS_FRAC

KPOINTS_MP_SPACING 0.014

SYMMETRY_GENERATE

%block species_pot
SOC19
%endblock species_pot
