%BLOCK LATTICE_CART
ang
 4.2112  0.0     0.0
 0.0     4.2112  0.0
 0.0     0.0     4.2112
%ENDBLOCK LATTICE_CART

%BLOCK POSITIONS_FRAC
Mg 0.00 0.00 0.00
Mg 0.50 0.50 0.00
Mg 0.50 0.00 0.50
Mg 0.00 0.50 0.50
O  0.00 0.50 0.00
O  0.50 0.00 0.00
O  0.00 0.00 0.50
O  0.50 0.50 0.50
%ENDBLOCK POSITIONS_FRAC

KPOINTS_MP_SPACING 0.014

SYMMETRY_GENERATE

%block species_pot
Mg	SOC19
O  	2|1.2|23|26|31|20N:21N(qc=9)
%endblock species_pot
