ALGO = Fast
EDIFF = 0.00001
ENCUT = 550
IBRION = -1
ISMEAR = -5
ISPIN = 1
LORBIT = 11
LREAL = .FALSE.
LWAVE = .FALSE.
NELM = 100
NSW = 0
PREC = Accurate
SIGMA = 0.05

LCHARG = .FALSE.
LAECHG = .TRUE.
LASPH = .TRUE.

NGXF=1000
NGYF=1000
NGZF=1000
